50	1
0 14
0 63
0 26
0 97
0 36
0 36
0 92
0 25
0 20
0 55
0 20
0 60
0 2
0 34
0 69
0 50
0 63
0 56
0 72
0 51
0 35
0 32
0 49
0 78
0 88
0 14
0 52
0 21
0 31
0 53
0 57
0 96
0 44
0 25
0 38
0 85
0 35
0 18
0 44
0 71
0 88
0 80
0 36
0 38
0 57
0 45
0 67
0 67
0 34
0 96
